
Gurobi 10.0.3 (linux64, gurobi_cl) logging started Fri Nov 10 20:14:20 2023

Set parameter Username
Set parameter TimeLimit to value 3600
Set parameter LogFile to value "RCPSP_1841.log"
Set parameter Threads to value 32
Academic license - for non-commercial use only - expires 2024-10-30
Using license file /home/jrivera6/gurobi-licenses/v1003/compute-0-37/gurobi.lic

Gurobi Optimizer version 10.0.3 build v10.0.3rc0 (linux64)
Copyright (c) 2023, Gurobi Optimization, LLC

Read MPS format model from file RCPSP_1841.mps
Reading time = 0.26 seconds
RCPSP_1841: 75288 rows, 29890 columns, 237062 nonzeros

CPU model: Intel(R) Xeon(R) Gold 6242 CPU @ 2.80GHz, instruction set [SSE2|AVX|AVX2|AVX512]
Thread count: 32 physical cores, 32 logical processors, using up to 32 threads

Optimize a model with 75288 rows, 29890 columns and 237062 nonzeros
Model fingerprint: 0xf08a4338
Variable types: 122 continuous, 29768 integer (29768 binary)
Coefficient statistics:
  Matrix range     [1e+00, 7e+02]
  Objective range  [1e+00, 1e+00]
  Bounds range     [1e+00, 1e+00]
  RHS range        [1e+00, 7e+02]
Presolve removed 15129 rows and 3302 columns (presolve time = 5s) ...
Presolve removed 15129 rows and 3302 columns (presolve time = 10s) ...
Presolve removed 18921 rows and 4469 columns
Presolve time: 14.06s
Presolved: 56367 rows, 25421 columns, 184942 nonzeros
Variable types: 121 continuous, 25300 integer (25300 binary)

Deterministic concurrent LP optimizer: primal and dual simplex (primal and dual model)
Showing first log only...

Root relaxation presolved: 56364 rows, 25424 columns, 184936 nonzeros


Root simplex log...

Iteration    Objective       Primal Inf.    Dual Inf.      Time
       0    1.0452774e+02   7.785184e-03   2.359024e+08     16s
    3344    1.0300000e+02   0.000000e+00   0.000000e+00     17s
    3344    1.0300000e+02   0.000000e+00   0.000000e+00     17s
Concurrent spin time: 1.61s

Solved with dual simplex (primal model)

Root relaxation: objective 1.030000e+02, 8327 iterations, 4.23 seconds (0.32 work units)
Total elapsed time = 21.73s
Total elapsed time = 25.59s

    Nodes    |    Current Node    |     Objective Bounds      |     Work
 Expl Unexpl |  Obj  Depth IntInf | Incumbent    BestBd   Gap | It/Node Time

     0     0  103.00000    0  568          -  103.00000      -     -   42s
     0     0  110.00000    0  487          -  110.00000      -     -   43s
     0     0  110.00000    0 1253          -  110.00000      -     -  134s
     0     0  110.00000    0 1042          -  110.00000      -     -  148s
     0     0  110.00000    0 1018          -  110.00000      -     -  156s
     0     0  110.00000    0 1061          -  110.00000      -     -  163s
     0     0  110.00000    0 1055          -  110.00000      -     -  171s
     0     0  110.00000    0 1070          -  110.00000      -     -  178s
     0     0  110.00000    0 1072          -  110.00000      -     -  183s
     0     0  110.00000    0 1013          -  110.00000      -     -  189s
     0     0  110.00000    0 1111          -  110.00000      -     -  193s
     0     0  110.00000    0 1093          -  110.00000      -     -  194s
     0     0  110.00000    0  915          -  110.00000      -     -  208s
     0     0  110.00000    0  931          -  110.00000      -     -  209s
     0     0  110.01290    0  225          -  110.01290      -     -  279s
     0     0  110.01290    0  234          -  110.01290      -     -  281s
     0     0  110.01290    0  215          -  110.01290      -     -  282s
     0     0  110.01290    0  213          -  110.01290      -     -  283s
     0     0  110.01290    0  410          -  110.01290      -     -  327s
     0     0  112.00000    0 1066          -  112.00000      -     -  383s
     0     0  112.00000    0 1138          -  112.00000      -     -  392s
     0     0  112.00000    0 1086          -  112.00000      -     -  393s
     0     0  112.00000    0  934          -  112.00000      -     -  399s
     0     0  112.00000    0  916          -  112.00000      -     -  400s
     0     0  112.00568    0 1136          -  112.00568      -     -  418s
     0     0  112.00568    0 1094          -  112.00568      -     -  423s
     0     0  112.00568    0 1073          -  112.00568      -     -  426s
     0     0  112.00568    0 1048          -  112.00568      -     -  426s
     0     0  112.00568    0 1095          -  112.00568      -     -  435s
     0     0  112.00568    0 1110          -  112.00568      -     -  447s
     0     0  112.00568    0  998          -  112.00568      -     -  448s
     0     0  112.00568    0 1134          -  112.00568      -     -  449s
     0     0  112.00568    0  447          -  112.00568      -     -  484s
     0     0  112.00568    0  445          -  112.00568      -     -  484s
     0     0  112.00568    0 1244          -  112.00568      -     -  555s
     0     0  112.00568    0 1251          -  112.00568      -     -  564s
     0     0  112.00568    0 1207          -  112.00568      -     -  565s
     0     0  112.00575    0 1153          -  112.00575      -     -  575s
     0     0  112.00575    0 1136          -  112.00575      -     -  575s
     0     0  112.00966    0  403          -  112.00966      -     -  626s
     0     0  112.00966    0  399          -  112.00966      -     -  626s
     0     0  112.00966    0  613          -  112.00966      -     -  747s
     0     0  112.01993    0  862          -  112.01993      -     -  775s
     0     0  112.01993    0  727          -  112.01993      -     -  778s
     0     0  112.01993    0  725          -  112.01993      -     -  779s
     0     0  112.39048    0  701          -  112.39048      -     -  782s
     0     0  112.91690    0 1086          -  112.91690      -     -  801s
     0     0  112.91690    0 1019          -  112.91690      -     -  801s
     0     0  112.91715    0  923          -  112.91715      -     -  805s
     0     0  112.91715    0  869          -  112.91715      -     -  805s
     0     0  112.91715    0  875          -  112.91715      -     -  806s
     0     0  112.95291    0 1227          -  112.95291      -     -  820s
     0     0  112.95291    0 1073          -  112.95291      -     -  822s
     0     0  112.96529    0 1059          -  112.96529      -     -  827s
     0     0  112.96529    0  958          -  112.96529      -     -  828s
     0     0  112.97623    0 1130          -  112.97623      -     -  832s
     0     0  112.97623    0 1071          -  112.97623      -     -  832s
     0     0  112.97623    0 1070          -  112.97623      -     -  833s
     0     0  112.97623    0  952          -  112.97623      -     -  835s
     0     0  112.97623    0  868          -  112.97623      -     -  836s
     0     0  112.98689    0 1160          -  112.98689      -     -  850s
     0     0  112.98689    0 1131          -  112.98689      -     -  850s
     0     0  112.98689    0 1127          -  112.98689      -     -  850s
     0     0  112.98689    0 1076          -  112.98689      -     -  854s
     0     0  112.98689    0 1064          -  112.98689      -     -  854s
     0     0  113.00894    0 1042          -  113.00894      -     -  861s
     0     0  113.00894    0  983          -  113.00894      -     -  862s
     0     0  113.00894    0  961          -  113.00894      -     -  863s
     0     0  113.01477    0 1158          -  113.01477      -     -  864s
     0     0  113.01477    0 1152          -  113.01477      -     -  864s
     0     0  113.01477    0 1096          -  113.01477      -     -  866s
     0     0  113.01477    0 1086          -  113.01477      -     -  866s
     0     0  113.08106    0 1166          -  113.08106      -     -  875s
     0     0  113.08106    0 1120          -  113.08106      -     -  876s
     0     0  113.08106    0 1093          -  113.08106      -     -  877s
     0     0  113.08106    0 1092          -  113.08106      -     -  877s
     0     0  113.08106    0 1040          -  113.08106      -     -  879s
     0     0  113.08106    0 1002          -  113.08106      -     -  879s
     0     0  113.08106    0 1272          -  113.08106      -     -  884s
     0     0  113.08106    0 1157          -  113.08106      -     -  884s
     0     0  113.08106    0 1121          -  113.08106      -     -  887s
     0     0  113.08106    0 1100          -  113.08106      -     -  888s
     0     0  113.08106    0  475          -  113.08106      -     - 1098s
     0     0  113.08106    0  474          -  113.08106      -     - 1098s
     0     0  113.08106    0  603          -  113.08106      -     - 1100s
     0     0  113.08106    0  268          -  113.08106      -     - 1366s
     0     0  113.08106    0  747          -  113.08106      -     - 1367s
     0     0  113.08990    0  342          -  113.08990      -     - 1440s
     0     0  113.08990    0  319          -  113.08990      -     - 1441s
     0     0  113.09157    0  702          -  113.09157      -     - 1464s
     0     0  113.09157    0  693          -  113.09157      -     - 1465s
     0     0  113.09157    0  693          -  113.09157      -     - 1465s
     0     0  113.09157    0  691          -  113.09157      -     - 1465s
     0     0  113.09157    0  812          -  113.09157      -     - 1466s
     0     0  113.09157    0  806          -  113.09157      -     - 1466s
     0     0  113.17843    0  921          -  113.17843      -     - 1470s
     0     0  113.17843    0  912          -  113.17843      -     - 1470s
     0     0  113.17843    0  785          -  113.17843      -     - 1472s
     0     0  113.17843    0 1053          -  113.17843      -     - 1476s
     0     0  113.17843    0 1043          -  113.17843      -     - 1476s
     0     0  113.17843    0  968          -  113.17843      -     - 1478s
     0     0  113.17843    0  952          -  113.17843      -     - 1478s
     0     0  113.19187    0  210          -  113.19187      -     - 1605s
     0     0  113.19187    0  675          -  113.19187      -     - 1616s
     0     0  113.19326    0  984          -  113.19326      -     - 1619s
     0     0  113.19326    0  937          -  113.19326      -     - 1620s
     0     0  113.19326    0  935          -  113.19326      -     - 1620s
     0     0  113.19326    0  570          -  113.19326      -     - 1622s
     0     0  113.19326    0  753          -  113.19326      -     - 1625s
     0     0  113.19326    0  741          -  113.19326      -     - 1625s
     0     0  113.19326    0  948          -  113.19326      -     - 1626s
     0     0  113.19326    0  228          -  113.19326      -     - 1660s
     0     0  113.19326    0  568          -  113.19326      -     - 1662s
     0     0  113.19326    0  566          -  113.19326      -     - 1662s
     0     0  113.19326    0  560          -  113.19326      -     - 1662s
     0     0  113.19326    0  280          -  113.19326      -     - 1671s
     0     0  113.19326    0  478          -  113.19326      -     - 1673s
     0     0  113.19326    0  472          -  113.19326      -     - 1673s
     0     0  113.19326    0  262          -  113.19326      -     - 1719s
     0     0  113.19326    0  261          -  113.19326      -     - 2462s
     0     2  113.19326    0  261          -  113.19326      -     - 2989s
     1     4  115.58537    1  249          -  114.00000      -  3319 3480s
     3     5  115.58537    2  245          -  114.99801      -  1263 4113s

Cutting planes:
  Learned: 5
  Gomory: 2
  Cover: 43
  Implied bound: 1
  Clique: 4
  MIR: 52
  StrongCG: 19
  RLT: 7
  Relax-and-lift: 28

Explored 5 nodes (268879 simplex iterations) in 4114.09 seconds (131.85 work units)
Thread count was 32 (of 32 available processors)

Solution count 0

Time limit reached
Best objective -, best bound 1.155853658536e+02, gap -

Unable to retrieve attribute 'X'

